NAME : XML100_1262_12
DIMENSION : 101
NB_CLUSTERS : 11
CLUSTERING_ALG : KMedoids
CLUSTERING_PARAMS : k(10)
CLUSTERS
1 0
2 16 17 32 33 49 61 65 69 75 76 84 90 91 97
3 1 4 12 18 22 23 24 25 28 37 43 50 51 53 59 62 63 64 66 67 70 73 74 78 79 85 87 100
4 13 31 45 48 80 81
5 26 36 57 71 99
6 38 39
7 7 14 20 29 35 42 44 54 55 56 68 82 93
8 21 27 60 86
9 58 89 98
10 3 9 10 11 15 30 40 41 46 47 52 94 96
11 2 5 6 8 19 34 72 77 83 88 92 95
EOF